Model 15 9 15 10
4 1 1 1 1 7 7 7 7 7 7 7 7 7 7 
1 5 0 3
1 10
3 10
5 10
1 6 0 3
1 10
3 10
5 10
1 7 0 3
1 10
3 10
5 10
1 8 0 3
1 10
3 10
5 10
1 9 0 3
1 10
3 10
5 10
1 10 0 3
1 10
3 10
5 10
1 11 0 3
1 10
3 10
5 10
1 12 0 3
1 10
3 10
5 10
1 13 0 3
1 10
3 10
5 10
1 14 0 3
1 10
3 10
5 10
5 0 5 6 7 8 -1 wsum hard 10 == 8
5 5 1 9 10 11 -1 wsum hard 10 == 2
5 6 9 2 12 13 -1 wsum hard 10 == 2
5 7 10 12 3 14 -1 wsum hard 10 == 2
5 8 11 13 14 4 -1 wsum hard 10 == 2
